Problem:    ModelGLPK_polytheonamide_B
Rows:       353
Columns:    70 (70 integer, 70 binary)
Non-zeros:  584
Status:     INTEGER OPTIMAL
Objective:  number_of_installed_atoms = 352 (MAXimum)

   No.   Row name        Activity     Lower bound   Upper bound
------ ------------    ------------- ------------- -------------
     1 Atom_Owner[a0]
                                   1                           1 
     2 Atom_Owner[a1]
                                   1                           1 
     3 Atom_Owner[a2]
                                   1                           1 
     4 Atom_Owner[a3]
                                   1                           1 
     5 Atom_Owner[a4]
                                   1                           1 
     6 Atom_Owner[a5]
                                   1                           1 
     7 Atom_Owner[a6]
                                   1                           1 
     8 Atom_Owner[a7]
                                   1                           1 
     9 Atom_Owner[a8]
                                   1                           1 
    10 Atom_Owner[a9]
                                   1                           1 
    11 Atom_Owner[a10]
                                   1                           1 
    12 Atom_Owner[a11]
                                   1                           1 
    13 Atom_Owner[a12]
                                   1                           1 
    14 Atom_Owner[a13]
                                   1                           1 
    15 Atom_Owner[a14]
                                   1                           1 
    16 Atom_Owner[a15]
                                   1                           1 
    17 Atom_Owner[a16]
                                   1                           1 
    18 Atom_Owner[a17]
                                   1                           1 
    19 Atom_Owner[a18]
                                   1                           1 
    20 Atom_Owner[a19]
                                   1                           1 
    21 Atom_Owner[a20]
                                   1                           1 
    22 Atom_Owner[a21]
                                   1                           1 
    23 Atom_Owner[a22]
                                   1                           1 
    24 Atom_Owner[a23]
                                   1                           1 
    25 Atom_Owner[a24]
                                   1                           1 
    26 Atom_Owner[a25]
                                   1                           1 
    27 Atom_Owner[a26]
                                   1                           1 
    28 Atom_Owner[a27]
                                   1                           1 
    29 Atom_Owner[a28]
                                   1                           1 
    30 Atom_Owner[a29]
                                   1                           1 
    31 Atom_Owner[a30]
                                   1                           1 
    32 Atom_Owner[a31]
                                   1                           1 
    33 Atom_Owner[a32]
                                   1                           1 
    34 Atom_Owner[a33]
                                   1                           1 
    35 Atom_Owner[a34]
                                   1                           1 
    36 Atom_Owner[a35]
                                   1                           1 
    37 Atom_Owner[a36]
                                   1                           1 
    38 Atom_Owner[a37]
                                   1                           1 
    39 Atom_Owner[a38]
                                   1                           1 
    40 Atom_Owner[a39]
                                   1                           1 
    41 Atom_Owner[a40]
                                   1                           1 
    42 Atom_Owner[a41]
                                   1                           1 
    43 Atom_Owner[a42]
                                   1                           1 
    44 Atom_Owner[a43]
                                   1                           1 
    45 Atom_Owner[a44]
                                   1                           1 
    46 Atom_Owner[a45]
                                   1                           1 
    47 Atom_Owner[a46]
                                   1                           1 
    48 Atom_Owner[a47]
                                   1                           1 
    49 Atom_Owner[a48]
                                   1                           1 
    50 Atom_Owner[a49]
                                   1                           1 
    51 Atom_Owner[a50]
                                   1                           1 
    52 Atom_Owner[a51]
                                   1                           1 
    53 Atom_Owner[a52]
                                   1                           1 
    54 Atom_Owner[a53]
                                   1                           1 
    55 Atom_Owner[a54]
                                   1                           1 
    56 Atom_Owner[a55]
                                   1                           1 
    57 Atom_Owner[a56]
                                   1                           1 
    58 Atom_Owner[a57]
                                   1                           1 
    59 Atom_Owner[a58]
                                   1                           1 
    60 Atom_Owner[a59]
                                   1                           1 
    61 Atom_Owner[a60]
                                   1                           1 
    62 Atom_Owner[a61]
                                   1                           1 
    63 Atom_Owner[a62]
                                   1                           1 
    64 Atom_Owner[a63]
                                   1                           1 
    65 Atom_Owner[a64]
                                   1                           1 
    66 Atom_Owner[a65]
                                   1                           1 
    67 Atom_Owner[a66]
                                   1                           1 
    68 Atom_Owner[a67]
                                   1                           1 
    69 Atom_Owner[a68]
                                   1                           1 
    70 Atom_Owner[a69]
                                   1                           1 
    71 Atom_Owner[a70]
                                   1                           1 
    72 Atom_Owner[a71]
                                   1                           1 
    73 Atom_Owner[a72]
                                   1                           1 
    74 Atom_Owner[a73]
                                   1                           1 
    75 Atom_Owner[a74]
                                   1                           1 
    76 Atom_Owner[a75]
                                   1                           1 
    77 Atom_Owner[a76]
                                   1                           1 
    78 Atom_Owner[a77]
                                   1                           1 
    79 Atom_Owner[a78]
                                   1                           1 
    80 Atom_Owner[a79]
                                   1                           1 
    81 Atom_Owner[a80]
                                   1                           1 
    82 Atom_Owner[a81]
                                   1                           1 
    83 Atom_Owner[a82]
                                   1                           1 
    84 Atom_Owner[a83]
                                   1                           1 
    85 Atom_Owner[a84]
                                   1                           1 
    86 Atom_Owner[a85]
                                   1                           1 
    87 Atom_Owner[a86]
                                   1                           1 
    88 Atom_Owner[a87]
                                   1                           1 
    89 Atom_Owner[a88]
                                   1                           1 
    90 Atom_Owner[a89]
                                   1                           1 
    91 Atom_Owner[a90]
                                   1                           1 
    92 Atom_Owner[a91]
                                   1                           1 
    93 Atom_Owner[a92]
                                   1                           1 
    94 Atom_Owner[a93]
                                   1                           1 
    95 Atom_Owner[a94]
                                   1                           1 
    96 Atom_Owner[a95]
                                   1                           1 
    97 Atom_Owner[a96]
                                   1                           1 
    98 Atom_Owner[a97]
                                   1                           1 
    99 Atom_Owner[a98]
                                   1                           1 
   100 Atom_Owner[a99]
                                   1                           1 
   101 Atom_Owner[a100]
                                   1                           1 
   102 Atom_Owner[a101]
                                   1                           1 
   103 Atom_Owner[a102]
                                   1                           1 
   104 Atom_Owner[a103]
                                   1                           1 
   105 Atom_Owner[a104]
                                   1                           1 
   106 Atom_Owner[a105]
                                   1                           1 
   107 Atom_Owner[a106]
                                   1                           1 
   108 Atom_Owner[a107]
                                   1                           1 
   109 Atom_Owner[a108]
                                   1                           1 
   110 Atom_Owner[a109]
                                   1                           1 
   111 Atom_Owner[a110]
                                   1                           1 
   112 Atom_Owner[a111]
                                   1                           1 
   113 Atom_Owner[a112]
                                   1                           1 
   114 Atom_Owner[a113]
                                   1                           1 
   115 Atom_Owner[a114]
                                   1                           1 
   116 Atom_Owner[a115]
                                   1                           1 
   117 Atom_Owner[a116]
                                   1                           1 
   118 Atom_Owner[a117]
                                   1                           1 
   119 Atom_Owner[a118]
                                   1                           1 
   120 Atom_Owner[a119]
                                   1                           1 
   121 Atom_Owner[a120]
                                   1                           1 
   122 Atom_Owner[a121]
                                   1                           1 
   123 Atom_Owner[a122]
                                   1                           1 
   124 Atom_Owner[a123]
                                   1                           1 
   125 Atom_Owner[a124]
                                   1                           1 
   126 Atom_Owner[a125]
                                   1                           1 
   127 Atom_Owner[a126]
                                   1                           1 
   128 Atom_Owner[a127]
                                   1                           1 
   129 Atom_Owner[a128]
                                   1                           1 
   130 Atom_Owner[a129]
                                   1                           1 
   131 Atom_Owner[a130]
                                   1                           1 
   132 Atom_Owner[a131]
                                   1                           1 
   133 Atom_Owner[a132]
                                   1                           1 
   134 Atom_Owner[a133]
                                   1                           1 
   135 Atom_Owner[a134]
                                   1                           1 
   136 Atom_Owner[a135]
                                   1                           1 
   137 Atom_Owner[a136]
                                   1                           1 
   138 Atom_Owner[a137]
                                   1                           1 
   139 Atom_Owner[a138]
                                   1                           1 
   140 Atom_Owner[a139]
                                   1                           1 
   141 Atom_Owner[a140]
                                   1                           1 
   142 Atom_Owner[a141]
                                   1                           1 
   143 Atom_Owner[a142]
                                   1                           1 
   144 Atom_Owner[a143]
                                   1                           1 
   145 Atom_Owner[a144]
                                   1                           1 
   146 Atom_Owner[a145]
                                   1                           1 
   147 Atom_Owner[a146]
                                   1                           1 
   148 Atom_Owner[a147]
                                   1                           1 
   149 Atom_Owner[a148]
                                   1                           1 
   150 Atom_Owner[a149]
                                   1                           1 
   151 Atom_Owner[a150]
                                   1                           1 
   152 Atom_Owner[a151]
                                   1                           1 
   153 Atom_Owner[a152]
                                   1                           1 
   154 Atom_Owner[a153]
                                   1                           1 
   155 Atom_Owner[a154]
                                   1                           1 
   156 Atom_Owner[a155]
                                   1                           1 
   157 Atom_Owner[a156]
                                   1                           1 
   158 Atom_Owner[a157]
                                   1                           1 
   159 Atom_Owner[a158]
                                   1                           1 
   160 Atom_Owner[a159]
                                   1                           1 
   161 Atom_Owner[a160]
                                   1                           1 
   162 Atom_Owner[a161]
                                   1                           1 
   163 Atom_Owner[a162]
                                   1                           1 
   164 Atom_Owner[a163]
                                   1                           1 
   165 Atom_Owner[a164]
                                   1                           1 
   166 Atom_Owner[a165]
                                   1                           1 
   167 Atom_Owner[a166]
                                   1                           1 
   168 Atom_Owner[a167]
                                   1                           1 
   169 Atom_Owner[a168]
                                   1                           1 
   170 Atom_Owner[a169]
                                   1                           1 
   171 Atom_Owner[a170]
                                   1                           1 
   172 Atom_Owner[a171]
                                   1                           1 
   173 Atom_Owner[a172]
                                   1                           1 
   174 Atom_Owner[a173]
                                   1                           1 
   175 Atom_Owner[a174]
                                   1                           1 
   176 Atom_Owner[a175]
                                   1                           1 
   177 Atom_Owner[a176]
                                   1                           1 
   178 Atom_Owner[a177]
                                   1                           1 
   179 Atom_Owner[a178]
                                   1                           1 
   180 Atom_Owner[a179]
                                   1                           1 
   181 Atom_Owner[a180]
                                   1                           1 
   182 Atom_Owner[a181]
                                   1                           1 
   183 Atom_Owner[a182]
                                   1                           1 
   184 Atom_Owner[a183]
                                   1                           1 
   185 Atom_Owner[a184]
                                   1                           1 
   186 Atom_Owner[a185]
                                   1                           1 
   187 Atom_Owner[a186]
                                   1                           1 
   188 Atom_Owner[a187]
                                   1                           1 
   189 Atom_Owner[a188]
                                   1                           1 
   190 Atom_Owner[a189]
                                   1                           1 
   191 Atom_Owner[a190]
                                   1                           1 
   192 Atom_Owner[a191]
                                   1                           1 
   193 Atom_Owner[a192]
                                   1                           1 
   194 Atom_Owner[a193]
                                   1                           1 
   195 Atom_Owner[a194]
                                   1                           1 
   196 Atom_Owner[a195]
                                   1                           1 
   197 Atom_Owner[a196]
                                   1                           1 
   198 Atom_Owner[a197]
                                   1                           1 
   199 Atom_Owner[a198]
                                   1                           1 
   200 Atom_Owner[a199]
                                   1                           1 
   201 Atom_Owner[a200]
                                   1                           1 
   202 Atom_Owner[a201]
                                   1                           1 
   203 Atom_Owner[a202]
                                   1                           1 
   204 Atom_Owner[a203]
                                   1                           1 
   205 Atom_Owner[a204]
                                   1                           1 
   206 Atom_Owner[a205]
                                   1                           1 
   207 Atom_Owner[a206]
                                   1                           1 
   208 Atom_Owner[a207]
                                   1                           1 
   209 Atom_Owner[a208]
                                   1                           1 
   210 Atom_Owner[a209]
                                   1                           1 
   211 Atom_Owner[a210]
                                   1                           1 
   212 Atom_Owner[a211]
                                   1                           1 
   213 Atom_Owner[a212]
                                   1                           1 
   214 Atom_Owner[a213]
                                   1                           1 
   215 Atom_Owner[a214]
                                   1                           1 
   216 Atom_Owner[a215]
                                   1                           1 
   217 Atom_Owner[a216]
                                   1                           1 
   218 Atom_Owner[a217]
                                   1                           1 
   219 Atom_Owner[a218]
                                   1                           1 
   220 Atom_Owner[a219]
                                   1                           1 
   221 Atom_Owner[a220]
                                   1                           1 
   222 Atom_Owner[a221]
                                   1                           1 
   223 Atom_Owner[a222]
                                   1                           1 
   224 Atom_Owner[a223]
                                   1                           1 
   225 Atom_Owner[a224]
                                   1                           1 
   226 Atom_Owner[a225]
                                   1                           1 
   227 Atom_Owner[a226]
                                   1                           1 
   228 Atom_Owner[a227]
                                   1                           1 
   229 Atom_Owner[a228]
                                   1                           1 
   230 Atom_Owner[a229]
                                   1                           1 
   231 Atom_Owner[a230]
                                   1                           1 
   232 Atom_Owner[a231]
                                   1                           1 
   233 Atom_Owner[a232]
                                   1                           1 
   234 Atom_Owner[a233]
                                   1                           1 
   235 Atom_Owner[a234]
                                   1                           1 
   236 Atom_Owner[a235]
                                   1                           1 
   237 Atom_Owner[a236]
                                   1                           1 
   238 Atom_Owner[a237]
                                   1                           1 
   239 Atom_Owner[a238]
                                   1                           1 
   240 Atom_Owner[a239]
                                   1                           1 
   241 Atom_Owner[a240]
                                   1                           1 
   242 Atom_Owner[a241]
                                   1                           1 
   243 Atom_Owner[a242]
                                   1                           1 
   244 Atom_Owner[a243]
                                   1                           1 
   245 Atom_Owner[a244]
                                   1                           1 
   246 Atom_Owner[a245]
                                   1                           1 
   247 Atom_Owner[a246]
                                   1                           1 
   248 Atom_Owner[a247]
                                   1                           1 
   249 Atom_Owner[a248]
                                   1                           1 
   250 Atom_Owner[a249]
                                   1                           1 
   251 Atom_Owner[a250]
                                   1                           1 
   252 Atom_Owner[a251]
                                   1                           1 
   253 Atom_Owner[a252]
                                   1                           1 
   254 Atom_Owner[a253]
                                   1                           1 
   255 Atom_Owner[a254]
                                   1                           1 
   256 Atom_Owner[a255]
                                   1                           1 
   257 Atom_Owner[a256]
                                   1                           1 
   258 Atom_Owner[a257]
                                   1                           1 
   259 Atom_Owner[a258]
                                   1                           1 
   260 Atom_Owner[a259]
                                   1                           1 
   261 Atom_Owner[a260]
                                   1                           1 
   262 Atom_Owner[a261]
                                   1                           1 
   263 Atom_Owner[a262]
                                   1                           1 
   264 Atom_Owner[a263]
                                   1                           1 
   265 Atom_Owner[a264]
                                   1                           1 
   266 Atom_Owner[a265]
                                   1                           1 
   267 Atom_Owner[a266]
                                   1                           1 
   268 Atom_Owner[a267]
                                   1                           1 
   269 Atom_Owner[a268]
                                   1                           1 
   270 Atom_Owner[a269]
                                   1                           1 
   271 Atom_Owner[a270]
                                   1                           1 
   272 Atom_Owner[a271]
                                   1                           1 
   273 Atom_Owner[a272]
                                   1                           1 
   274 Atom_Owner[a273]
                                   1                           1 
   275 Atom_Owner[a274]
                                   1                           1 
   276 Atom_Owner[a275]
                                   1                           1 
   277 Atom_Owner[a276]
                                   1                           1 
   278 Atom_Owner[a277]
                                   1                           1 
   279 Atom_Owner[a278]
                                   1                           1 
   280 Atom_Owner[a279]
                                   1                           1 
   281 Atom_Owner[a280]
                                   1                           1 
   282 Atom_Owner[a281]
                                   1                           1 
   283 Atom_Owner[a282]
                                   1                           1 
   284 Atom_Owner[a283]
                                   1                           1 
   285 Atom_Owner[a284]
                                   1                           1 
   286 Atom_Owner[a285]
                                   1                           1 
   287 Atom_Owner[a286]
                                   1                           1 
   288 Atom_Owner[a287]
                                   1                           1 
   289 Atom_Owner[a288]
                                   1                           1 
   290 Atom_Owner[a289]
                                   1                           1 
   291 Atom_Owner[a290]
                                   1                           1 
   292 Atom_Owner[a291]
                                   1                           1 
   293 Atom_Owner[a292]
                                   1                           1 
   294 Atom_Owner[a293]
                                   1                           1 
   295 Atom_Owner[a294]
                                   1                           1 
   296 Atom_Owner[a295]
                                   1                           1 
   297 Atom_Owner[a296]
                                   1                           1 
   298 Atom_Owner[a297]
                                   1                           1 
   299 Atom_Owner[a298]
                                   1                           1 
   300 Atom_Owner[a299]
                                   1                           1 
   301 Atom_Owner[a300]
                                   1                           1 
   302 Atom_Owner[a301]
                                   1                           1 
   303 Atom_Owner[a302]
                                   1                           1 
   304 Atom_Owner[a303]
                                   1                           1 
   305 Atom_Owner[a304]
                                   1                           1 
   306 Atom_Owner[a305]
                                   1                           1 
   307 Atom_Owner[a306]
                                   1                           1 
   308 Atom_Owner[a307]
                                   1                           1 
   309 Atom_Owner[a308]
                                   1                           1 
   310 Atom_Owner[a309]
                                   1                           1 
   311 Atom_Owner[a310]
                                   1                           1 
   312 Atom_Owner[a311]
                                   1                           1 
   313 Atom_Owner[a312]
                                   1                           1 
   314 Atom_Owner[a313]
                                   1                           1 
   315 Atom_Owner[a314]
                                   1                           1 
   316 Atom_Owner[a315]
                                   1                           1 
   317 Atom_Owner[a316]
                                   1                           1 
   318 Atom_Owner[a317]
                                   1                           1 
   319 Atom_Owner[a318]
                                   1                           1 
   320 Atom_Owner[a319]
                                   1                           1 
   321 Atom_Owner[a320]
                                   1                           1 
   322 Atom_Owner[a321]
                                   1                           1 
   323 Atom_Owner[a322]
                                   1                           1 
   324 Atom_Owner[a323]
                                   1                           1 
   325 Atom_Owner[a324]
                                   1                           1 
   326 Atom_Owner[a325]
                                   1                           1 
   327 Atom_Owner[a326]
                                   1                           1 
   328 Atom_Owner[a327]
                                   1                           1 
   329 Atom_Owner[a328]
                                   1                           1 
   330 Atom_Owner[a329]
                                   1                           1 
   331 Atom_Owner[a330]
                                   1                           1 
   332 Atom_Owner[a331]
                                   1                           1 
   333 Atom_Owner[a332]
                                   1                           1 
   334 Atom_Owner[a333]
                                   1                           1 
   335 Atom_Owner[a334]
                                   1                           1 
   336 Atom_Owner[a335]
                                   1                           1 
   337 Atom_Owner[a336]
                                   1                           1 
   338 Atom_Owner[a337]
                                   1                           1 
   339 Atom_Owner[a338]
                                   1                           1 
   340 Atom_Owner[a339]
                                   1                           1 
   341 Atom_Owner[a340]
                                   1                           1 
   342 Atom_Owner[a341]
                                   1                           1 
   343 Atom_Owner[a342]
                                   1                           1 
   344 Atom_Owner[a343]
                                   1                           1 
   345 Atom_Owner[a344]
                                   1                           1 
   346 Atom_Owner[a345]
                                   1                           1 
   347 Atom_Owner[a346]
                                   1                           1 
   348 Atom_Owner[a347]
                                   1                           1 
   349 Atom_Owner[a348]
                                   1                           1 
   350 Atom_Owner[a349]
                                   1                           1 
   351 Atom_Owner[a350]
                                   1                           1 
   352 Atom_Owner[a351]
                                   1                           1 
   353 number_of_installed_atoms
                                 352                             

   No. Column name       Activity     Lower bound   Upper bound
------ ------------    ------------- ------------- -------------
     1 install[m0]  *              1             0             1 
     2 install[m1]  *              0             0             1 
     3 install[m2]  *              0             0             1 
     4 install[m3]  *              0             0             1 
     5 install[m4]  *              0             0             1 
     6 install[m5]  *              0             0             1 
     7 install[m6]  *              0             0             1 
     8 install[m7]  *              1             0             1 
     9 install[m8]  *              1             0             1 
    10 install[m9]  *              0             0             1 
    11 install[m10] *              0             0             1 
    12 install[m11] *              0             0             1 
    13 install[m12] *              1             0             1 
    14 install[m13] *              1             0             1 
    15 install[m14] *              1             0             1 
    16 install[m15] *              1             0             1 
    17 install[m16] *              1             0             1 
    18 install[m17] *              1             0             1 
    19 install[m18] *              1             0             1 
    20 install[m19] *              1             0             1 
    21 install[m20] *              1             0             1 
    22 install[m21] *              1             0             1 
    23 install[m22] *              1             0             1 
    24 install[m23] *              1             0             1 
    25 install[m24] *              1             0             1 
    26 install[m25] *              1             0             1 
    27 install[m26] *              1             0             1 
    28 install[m27] *              1             0             1 
    29 install[m28] *              1             0             1 
    30 install[m29] *              1             0             1 
    31 install[m30] *              1             0             1 
    32 install[m31] *              0             0             1 
    33 install[m32] *              1             0             1 
    34 install[m33] *              1             0             1 
    35 install[m34] *              1             0             1 
    36 install[m35] *              1             0             1 
    37 install[m36] *              1             0             1 
    38 install[m37] *              1             0             1 
    39 install[m38] *              1             0             1 
    40 install[m39] *              1             0             1 
    41 install[m40] *              1             0             1 
    42 install[m41] *              1             0             1 
    43 install[m42] *              1             0             1 
    44 install[m43] *              0             0             1 
    45 install[m44] *              0             0             1 
    46 install[m45] *              1             0             1 
    47 install[m46] *              1             0             1 
    48 install[m47] *              0             0             1 
    49 install[m48] *              0             0             1 
    50 install[m49] *              0             0             1 
    51 install[m50] *              0             0             1 
    52 install[m51] *              0             0             1 
    53 install[m52] *              0             0             1 
    54 install[m53] *              0             0             1 
    55 install[m54] *              0             0             1 
    56 install[m55] *              1             0             1 
    57 install[m56] *              1             0             1 
    58 install[m57] *              1             0             1 
    59 install[m58] *              1             0             1 
    60 install[m59] *              1             0             1 
    61 install[m60] *              1             0             1 
    62 install[m61] *              1             0             1 
    63 install[m62] *              1             0             1 
    64 install[m63] *              1             0             1 
    65 install[m64] *              1             0             1 
    66 install[m65] *              1             0             1 
    67 install[m66] *              1             0             1 
    68 install[m67] *              1             0             1 
    69 install[m68] *              0             0             1 
    70 install[m69] *              1             0             1 

Integer feasibility conditions:

KKT.PE: max.abs.err = 0.00e+00 on row 0
        max.rel.err = 0.00e+00 on row 0
        High quality

KKT.PB: max.abs.err = 0.00e+00 on row 0
        max.rel.err = 0.00e+00 on row 0
        High quality

End of output
